(set-logic QF_LIA)
(declare-fun x0 () Int)
(declare-fun x1 () Int)
(declare-fun x2 () Int)
(declare-fun x3 () Int)
(declare-fun x4 () Int)
(declare-fun x5 () Int)
(declare-fun x6 () Int)
(declare-fun x7 () Int)
(declare-fun x8 () Int)
(declare-fun x9 () Int)
(declare-fun A0 () Bool)
(declare-fun A1 () Bool)
(declare-fun A2 () Bool)
(declare-fun A3 () Bool)
(declare-fun A4 () Bool)
(declare-fun A5 () Bool)
(declare-fun A6 () Bool)
(declare-fun A7 () Bool)
(declare-fun A8 () Bool)
(declare-fun A9 () Bool)
(assert (let ((.def_0 (* 1 x4))) (let ((.def_1 (* (- 1) x2))) (let ((.def_2 (+ .def_1 .def_0))) (let ((.def_3 (< .def_2 (- 1)))) (let ((.def_4 (not .def_3))) (let ((.def_5 (* (- 1) x7))) (let ((.def_6 (< .def_5 1))) (let ((.def_7 (or .def_6 .def_4))) (let ((.def_8 (not .def_7))) (let ((.def_9 (not A0))) (let ((.def_10 (or .def_9 A9))) (let ((.def_11 (not .def_10))) (let ((.def_12 (and .def_11 .def_8))) (let ((.def_13 (not .def_12))) (let ((.def_14 (* 1 x5))) (let ((.def_15 (< .def_14 (- 1)))) (let ((.def_16 (not .def_15))) (let ((.def_17 (* (- 1) x5))) (let ((.def_18 (* 1 x2))) (let ((.def_19 (+ .def_18 .def_17))) (let ((.def_20 (< .def_19 1))) (let ((.def_21 (and .def_20 .def_16))) (let ((.def_22 (not .def_21))) (let ((.def_23 (* (- 1) x1))) (let ((.def_24 (+ .def_5 .def_23))) (let ((.def_25 (< .def_24 (- 1)))) (let ((.def_26 (not .def_25))) (let ((.def_27 (* 1 x7))) (let ((.def_28 (* 1 x3))) (let ((.def_29 (+ .def_28 .def_27))) (let ((.def_30 (< .def_29 1))) (let ((.def_31 (not .def_30))) (let ((.def_32 (or .def_31 .def_26))) (let ((.def_33 (not .def_32))) (let ((.def_34 (and .def_33 .def_22))) (let ((.def_35 (and .def_34 .def_13))) (let ((.def_36 (not .def_35))) (let ((.def_37 (* (- 1) x0))) (let ((.def_38 (* (- 1) x3))) (let ((.def_39 (+ .def_38 .def_37))) (let ((.def_40 (< .def_39 (- 1)))) (let ((.def_41 (not .def_40))) (let ((.def_42 (and A5 .def_41))) (let ((.def_43 (not .def_42))) (let ((.def_44 (not A5))) (let ((.def_45 (* 1 x9))) (let ((.def_46 (< .def_45 1))) (let ((.def_47 (or .def_46 .def_44))) (let ((.def_48 (not .def_47))) (let ((.def_49 (and .def_48 .def_43))) (let ((.def_50 (not .def_49))) (let ((.def_51 (* (- 1) x4))) (let ((.def_52 (< .def_51 (- 1)))) (let ((.def_53 (not A4))) (let ((.def_54 (and .def_53 .def_52))) (let ((.def_55 (not .def_54))) (let ((.def_56 (< .def_14 1))) (let ((.def_57 (not .def_56))) (let ((.def_58 (* 1 x6))) (let ((.def_59 (< .def_58 1))) (let ((.def_60 (not .def_59))) (let ((.def_61 (= .def_60 .def_57))) (let ((.def_62 (not .def_61))) (let ((.def_63 (or .def_62 .def_55))) (let ((.def_64 (not .def_63))) (let ((.def_65 (or .def_64 .def_50))) (let ((.def_66 (not .def_65))) (let ((.def_67 (or .def_66 .def_36))) (let ((.def_68 (not .def_67))) (let ((.def_69 (not A3))) (let ((.def_70 (not A6))) (let ((.def_71 (or .def_70 .def_69))) (let ((.def_72 (not .def_71))) (let ((.def_73 (< .def_23 1))) (let ((.def_74 (not .def_73))) (let ((.def_75 (or A4 .def_74))) (let ((.def_76 (not .def_75))) (let ((.def_77 (or .def_76 .def_72))) (let ((.def_78 (not .def_77))) (let ((.def_79 (* 1 x0))) (let ((.def_80 (+ .def_51 .def_79))) (let ((.def_81 (< .def_80 (- 1)))) (let ((.def_82 (and A9 .def_81))) (let ((.def_83 (not .def_82))) (let ((.def_84 (* 1 x8))) (let ((.def_85 (< .def_84 1))) (let ((.def_86 (not .def_85))) (let ((.def_87 (or A7 .def_86))) (let ((.def_88 (not .def_87))) (let ((.def_89 (= .def_88 .def_83))) (let ((.def_90 (not .def_89))) (let ((.def_91 (or .def_90 .def_78))) (let ((.def_92 (not .def_91))) (let ((.def_93 (* 1 x1))) (let ((.def_94 (< .def_93 (- 1)))) (let ((.def_95 (not .def_94))) (let ((.def_96 (and .def_95 A8))) (let ((.def_97 (not .def_96))) (let ((.def_98 (not A1))) (let ((.def_99 (or A2 .def_98))) (let ((.def_100 (not .def_99))) (let ((.def_101 (= .def_100 .def_97))) (let ((.def_102 (* (- 1) x6))) (let ((.def_103 (< .def_102 1))) (let ((.def_104 (or .def_103 A9))) (let ((.def_105 (not A9))) (let ((.def_106 (or .def_105 .def_70))) (let ((.def_107 (and .def_106 .def_104))) (let ((.def_108 (not .def_107))) (let ((.def_109 (and .def_108 .def_101))) (let ((.def_110 (not .def_109))) (let ((.def_111 (and .def_110 .def_92))) (let ((.def_112 (or .def_111 .def_68))) (let ((.def_113 (+ .def_0 .def_79))) (let ((.def_114 (< .def_113 (- 1)))) (let ((.def_115 (and A7 .def_114))) (let ((.def_116 (or A4 A6))) (let ((.def_117 (or .def_116 .def_115))) (let ((.def_118 (not A7))) (let ((.def_119 (or .def_70 .def_118))) (let ((.def_120 (+ .def_58 .def_93))) (let ((.def_121 (< .def_120 (- 1)))) (let ((.def_122 (and .def_98 .def_121))) (let ((.def_123 (not .def_122))) (let ((.def_124 (and .def_123 .def_119))) (let ((.def_125 (or .def_124 .def_117))) (let ((.def_126 (not .def_125))) (let ((.def_127 (+ .def_84 .def_5))) (let ((.def_128 (< .def_127 (- 1)))) (let ((.def_129 (not .def_128))) (let ((.def_130 (and A6 .def_129))) (let ((.def_131 (or A6 .def_53))) (let ((.def_132 (or .def_131 .def_130))) (let ((.def_133 (< .def_102 (- 1)))) (let ((.def_134 (and .def_133 .def_53))) (let ((.def_135 (not .def_134))) (let ((.def_136 (+ .def_51 .def_27))) (let ((.def_137 (< .def_136 1))) (let ((.def_138 (not .def_137))) (let ((.def_139 (or .def_138 A9))) (let ((.def_140 (and .def_139 .def_135))) (let ((.def_141 (not .def_140))) (let ((.def_142 (or .def_141 .def_132))) (let ((.def_143 (or .def_142 .def_126))) (let ((.def_144 (or A6 A6))) (let ((.def_145 (+ .def_84 .def_1))) (let ((.def_146 (< .def_145 1))) (let ((.def_147 (+ .def_18 .def_102))) (let ((.def_148 (< .def_147 (- 1)))) (let ((.def_149 (not .def_148))) (let ((.def_150 (and .def_149 .def_146))) (let ((.def_151 (not .def_150))) (let ((.def_152 (and .def_151 .def_144))) (let ((.def_153 (not .def_152))) (let ((.def_154 (+ .def_0 .def_93))) (let ((.def_155 (< .def_154 (- 1)))) (let ((.def_156 (< .def_0 (- 1)))) (let ((.def_157 (not .def_156))) (let ((.def_158 (and .def_157 .def_155))) (let ((.def_159 (not .def_158))) (let ((.def_160 (and A2 A4))) (let ((.def_161 (not .def_160))) (let ((.def_162 (and .def_161 .def_159))) (let ((.def_163 (not .def_162))) (let ((.def_164 (and .def_163 .def_153))) (let ((.def_165 (not .def_164))) (let ((.def_166 (* (- 1) x9))) (let ((.def_167 (+ .def_166 .def_27))) (let ((.def_168 (< .def_167 1))) (let ((.def_169 (and .def_168 .def_6))) (let ((.def_170 (or A5 .def_98))) (let ((.def_171 (and .def_170 .def_169))) (let ((.def_172 (< .def_51 1))) (let ((.def_173 (+ .def_14 .def_5))) (let ((.def_174 (< .def_173 (- 1)))) (let ((.def_175 (and .def_174 .def_172))) (let ((.def_176 (+ .def_102 .def_37))) (let ((.def_177 (< .def_176 (- 1)))) (let ((.def_178 (+ .def_58 .def_166))) (let ((.def_179 (< .def_178 (- 1)))) (let ((.def_180 (not .def_179))) (let ((.def_181 (= .def_180 .def_177))) (let ((.def_182 (not .def_181))) (let ((.def_183 (and .def_182 .def_175))) (let ((.def_184 (not .def_183))) (let ((.def_185 (and .def_184 .def_171))) (let ((.def_186 (and .def_185 .def_165))) (let ((.def_187 (and .def_186 .def_143))) (let ((.def_188 (not .def_187))) (let ((.def_189 (= .def_188 .def_112))) (let ((.def_190 (<= x9 1))) (let ((.def_191 (<= 0 x9))) (let ((.def_192 (<= x8 1))) (let ((.def_193 (<= 0 x8))) (let ((.def_194 (<= x7 1))) (let ((.def_195 (<= 0 x7))) (let ((.def_196 (<= x6 1))) (let ((.def_197 (<= 0 x6))) (let ((.def_198 (<= x5 1))) (let ((.def_199 (<= 0 x5))) (let ((.def_200 (<= x4 1))) (let ((.def_201 (<= 0 x4))) (let ((.def_202 (<= x3 1))) (let ((.def_203 (<= 0 x3))) (let ((.def_204 (<= x2 1))) (let ((.def_205 (<= 0 x2))) (let ((.def_206 (<= x1 1))) (let ((.def_207 (<= 0 x1))) (let ((.def_208 (<= x0 1))) (let ((.def_209 (<= 0 x0))) (let ((.def_210 (and .def_209 .def_208 .def_207 .def_206 .def_205 .def_204 .def_203 .def_202 .def_201 .def_200 .def_199 .def_198 .def_197 .def_196 .def_195 .def_194 .def_193 .def_192 .def_191 .def_190 .def_189))) .def_210))))))))))))))))))))))))))))))))))))))))))))))))))))))))))))))))))))))))))))))))))))))))))))))))))))))))))))))))))))))))))))))))))))))))))))))))))))))))))))))))))))))))))))))))))))))))))))))))))))))))))))))))))))
(check-sat)
